p tw 20 44
1 12
1 15
1 16
1 4
2 12
2 17
2 18
2 19
2 20
2 5
2 9
14 15
14 16
3 18
3 20
3 5
4 12
4 16
4 19
4 20
4 7
4 9
5 11
5 12
5 16
5 20
5 6
6 11
6 15
6 19
6 9
7 14
7 18
8 13
8 15
8 19
8 20
9 12
9 17
9 18
9 19
10 11
10 13
10 14
